\* Problem: Unknown *\

Maximize
 obj: + xp_0_0 + xp_1_0 + xp_1_1 + xp_2_0 + xp_2_1 + xp_3_0 + xp_3_1
 + xp_4_0 + xp_5_0 + xp_6_0 + xp_6_1 + xp_7_0 + xp_8_0 + xp_9_0 + xp_9_1
 + xp_10_0 + xp_11_0 + xp_11_1 + xp_12_0 + xp_12_1 + xp_12_2 + xp_13_0
 + xp_13_1 + xp_13_2 + xp_14_0 + xp_14_1 + xp_15_0 + xp_16_0 + xp_17_0
 + xp_17_1 + xp_18_0 + xp_18_1 + xp_18_2 + xp_19_0 + xp_19_1 + xp_20_0
 + xp_21_0 + xp_22_0 + xp_22_1 + xp_23_0 + xp_24_0 + xp_24_1 + xp_25_0
 + xp_26_0 + xp_27_0 + xp_28_0 + xp_28_1 + xp_29_0 + xp_30_0 + xp_30_1
 + xp_31_0 + xp_32_0 + xp_32_1 + xp_32_2 + xp_32_3 + xp_33_0 + xp_34_0
 + xp_34_1 + xp_35_0 + xp_36_0 + xp_37_0 + xp_38_0 + xp_39_0 + xp_40_0
 + xp_40_1 + xp_40_2 + xp_41_0 + xp_42_0 + xp_42_1 + xp_42_2 + xp_43_0
 + xp_44_0 + xp_45_0 + xp_46_0 + xp_47_0 + xp_48_0 + xp_48_1 + xp_49_0
 + xp_50_0 + xp_50_1 + xp_50_2 + xp_51_0 + xp_52_0 + xp_53_0 + xp_53_1
 + xp_54_0 + xp_55_0 + xp_55_1 + xp_56_0 + xp_57_0 + xp_57_1 + xp_58_0
 + xp_58_1 + xp_58_2 + xp_59_0 + xp_60_0 + xp_60_1 + xp_61_0 + xp_61_1
 + xp_62_0 + xp_63_0 + xp_63_1 + xp_64_0 + xp_65_0 + xp_65_1 + xp_66_0
 + xp_67_0 + xp_67_1 + xp_68_0 + xp_68_1 + xp_68_2 + xp_69_0 + xp_70_0
 + xp_71_0 + xp_72_0 + xp_73_0 + xp_74_0 + xp_75_0 + xp_75_1 + xp_76_0
 + xp_77_0 + xp_77_1 + xp_78_0 + xp_78_1 + xp_78_2 + xp_78_3 + xp_78_4
 + xp_79_0 + xp_79_1 + xp_80_0 + xp_80_1 + xp_81_0 + xp_81_1 + xp_82_0
 + xp_83_0 + xp_84_0 + xp_85_0 + xp_85_1 + xp_86_0 + xp_86_1 + xp_86_2
 + xp_87_0 + xp_88_0 + xp_89_0 + xp_89_1 + xp_90_0 + xp_90_1 + xp_90_2
 + xp_91_0 + xp_91_1 + xp_92_0 + xp_92_1 + xp_93_0 + xp_94_0 + xp_94_1
 + xp_94_2 + xp_94_3 + xp_95_0 + xp_95_1 + xp_95_2 + xp_96_0 + xp_96_1
 + xp_97_0 + xp_98_0 + xp_98_1 + xp_99_0 + xp_99_1 + xp_100_0 + xp_101_0
 + xp_102_0 + xp_103_0 + xp_104_0 + xp_105_0 + xp_106_0 + xp_107_0
 + xp_108_0 + xp_108_1 + xp_108_2 + xp_109_0 + xp_109_1 + xp_110_0
 + xp_111_0 + xp_111_1 + xp_112_0 + xp_112_1 + xp_112_2 + xp_113_0
 + xp_114_0 + xp_115_0 + xp_115_1 + xp_116_0 + xp_116_1 + xp_117_0
 + xp_118_0 + xp_119_0 + xp_119_1 + xp_120_0 + xp_120_1 + xp_120_2
 + xp_121_0 + xp_122_0 + xp_123_0 + xp_123_1 + xp_124_0 + xp_124_1
 + xp_125_0 + xp_125_1 + xp_126_0 + xp_126_1 + xp_126_2 + xp_126_3
 + xp_126_4 + xp_126_5 + xp_126_6 + xp_127_0 + xp_127_1 + xp_128_0
 + xp_128_1 + xp_128_2 + xp_129_0 + xp_129_1 + xp_130_0 + xp_131_0
 + xp_131_1 + xp_131_2 + xp_131_3

Subject To
 r_1: + xp_128_2 + xp_128_1 + xp_123_1 + xp_122_0 + xp_121_0 + xp_108_2
 + xp_107_0 + xp_78_3 + xp_67_1 + xp_57_1 + xp_40_2 + xp_40_1 + xp_25_0
 + xp_22_1 + xp_18_2 + xp_18_0 + xp_16_0 + xp_13_2 + xp_13_1 + xp_6_1
 + xp_4_0 <= 38281.3816343724
 r_2: + xp_131_2 + xp_131_1 + xp_127_1 + xp_126_6 + xp_126_5 + xp_126_1
 + xp_120_2 + xp_120_0 + xp_94_3 + xp_94_2 + xp_94_1 + xp_93_0 + xp_90_1
 + xp_89_1 + xp_85_1 + xp_85_0 + xp_77_1 + xp_75_1 + xp_75_0 + xp_71_0
 + xp_66_0 + xp_65_1 + xp_65_0 + xp_61_1 + xp_55_0 + xp_52_0 + xp_48_1
 + xp_48_0 + xp_42_2 + xp_42_1 + xp_32_1 + xp_32_0 + xp_28_1 + xp_28_0
 + xp_24_0 + xp_19_1 + xp_19_0 + xp_12_1 + xp_1_1 <= 34748.3512669212
 r_3: + xp_126_5 + xp_126_4 + xp_114_0 + xp_95_0 + xp_76_0 + xp_58_1
 + xp_48_1 + xp_34_0 <= 38635.1471900089
 r_4: + xp_117_0 + xp_95_2 + xp_95_1 + xp_91_1 + xp_91_0 + xp_84_0
 + xp_79_1 + xp_79_0 + xp_78_4 + xp_46_0 + xp_43_0 + xp_40_2 + xp_40_1
 + xp_40_0 + xp_34_1 <= 36180.8219178082
 r_5: + xp_130_0 + xp_99_0 + xp_86_0 + xp_78_4 + xp_7_0 + xp_2_0
 <= 38635.1471900089
 r_6: + xp_126_6 + xp_126_5 + xp_126_4 + xp_126_2 + xp_119_0 + xp_114_0
 + xp_95_0 + xp_83_0 + xp_81_0 + xp_70_0 + xp_68_1 + xp_58_2 + xp_58_1
 + xp_53_0 + xp_48_1 + xp_45_0 + xp_34_0 + xp_32_3 + xp_32_1 + xp_30_1
 + xp_18_0 <= 38172.0430107527
 r_7: + xp_119_1 + xp_112_2 + xp_112_1 + xp_111_1 + xp_104_0 + xp_88_0
 + xp_82_0 + xp_81_1 + xp_78_2 + xp_53_1 + xp_50_2 + xp_44_0 + xp_27_0
 + xp_18_2 + xp_18_1 + xp_3_1 <= 36180.8219178082
 r_8: + xp_131_2 + xp_131_1 + xp_127_1 + xp_126_6 + xp_126_5 + xp_126_1
 + xp_120_2 + xp_120_0 + xp_118_0 + xp_103_0 + xp_94_3 + xp_94_2
 + xp_94_1 + xp_90_1 + xp_89_1 + xp_77_1 + xp_71_0 + xp_61_1 + xp_55_0
 + xp_42_2 + xp_42_1 + xp_32_1 + xp_32_0 + xp_24_0 + xp_12_1 + xp_1_1
 <= 38281.3816343724
 r_9: + xp_131_3 + xp_131_0 + xp_127_0 + xp_123_1 + xp_122_0 + xp_120_1
 + xp_108_2 + xp_78_3 + xp_77_0 + xp_67_1 + xp_57_1 + xp_55_1 + xp_42_0
 + xp_33_0 + xp_32_3 + xp_32_2 + xp_24_1 + xp_6_1 <= 38394.8497854077
 r_10: + xp_124_1 + xp_112_2 + xp_112_1 + xp_111_1 + xp_106_0 + xp_99_0
 + xp_98_0 + xp_94_1 + xp_88_0 + xp_86_0 + xp_85_0 + xp_78_4 + xp_78_2
 + xp_50_2 + xp_26_0 + xp_24_0 + xp_8_0 + xp_7_0 + xp_3_1 + xp_2_0
 <= 38172.0430107527
 r_11: + xp_119_0 + xp_112_0 + xp_111_0 + xp_95_0 + xp_81_0 + xp_78_3
 + xp_78_1 + xp_78_0 + xp_59_0 + xp_53_0 + xp_50_1 + xp_50_0 + xp_49_0
 + xp_45_0 + xp_34_0 + xp_18_0 + xp_4_0 + xp_3_0 <= 35917.2202350537
 r_12: + xp_129_0 + xp_128_2 + xp_128_0 + xp_123_0 + xp_117_0 + xp_112_2
 + xp_111_1 + xp_108_1 + xp_101_0 + xp_95_2 + xp_91_1 + xp_82_0
 + xp_81_1 + xp_80_1 + xp_79_1 + xp_78_4 + xp_78_2 + xp_78_0 + xp_73_0
 + xp_63_1 + xp_60_0 + xp_50_2 + xp_50_1 + xp_46_0 + xp_44_0 + xp_40_1
 + xp_40_0 + xp_18_2 + xp_18_1 + xp_17_1 + xp_15_0 + xp_14_1 + xp_13_1
 + xp_13_0 + xp_9_0 <= 35452.5189478377
 r_13: + xp_129_1 + xp_128_1 + xp_126_3 + xp_123_1 + xp_120_2 + xp_120_1
 + xp_119_1 + xp_112_1 + xp_109_1 + xp_100_0 + xp_96_1 + xp_95_1
 + xp_92_1 + xp_91_0 + xp_90_0 + xp_80_0 + xp_79_0 + xp_75_1 + xp_68_0
 + xp_63_0 + xp_60_1 + xp_53_1 + xp_40_2 + xp_34_1 + xp_31_0 + xp_30_0
 + xp_17_0 + xp_13_2 + xp_9_1 <= 35917.2202350537
 r_14: + xp_131_3 + xp_131_2 + xp_131_1 + xp_131_0 + xp_126_6 + xp_126_5
 + xp_126_4 + xp_126_2 + xp_125_1 + xp_125_0 + xp_124_0 + xp_115_1
 + xp_115_0 + xp_99_1 + xp_98_1 + xp_94_3 + xp_94_2 + xp_94_0 + xp_86_2
 + xp_86_1 + xp_85_1 + xp_77_1 + xp_77_0 + xp_68_1 + xp_65_1 + xp_65_0
 + xp_58_2 + xp_58_1 + xp_56_0 + xp_51_0 + xp_48_1 + xp_41_0 + xp_38_0
 + xp_35_0 + xp_32_3 + xp_32_1 + xp_30_1 + xp_24_1 + xp_20_0 + xp_19_1
 + xp_19_0 + xp_12_2 + xp_12_1 + xp_12_0 + xp_2_1 + xp_0_0
 <= 36180.8219178082
 r_15: + xp_131_2 + xp_131_0 + xp_126_6 + xp_126_5 + xp_126_4 + xp_126_3
 + xp_126_2 + xp_125_0 + xp_124_0 + xp_120_2 + xp_120_1 + xp_116_0
 + xp_115_0 + xp_109_1 + xp_99_1 + xp_98_1 + xp_96_1 + xp_94_3 + xp_94_0
 + xp_92_1 + xp_90_0 + xp_89_1 + xp_89_0 + xp_86_1 + xp_85_1 + xp_77_1
 + xp_77_0 + xp_75_1 + xp_68_1 + xp_68_0 + xp_65_0 + xp_58_2 + xp_58_1
 + xp_51_0 + xp_48_1 + xp_42_2 + xp_42_0 + xp_38_0 + xp_36_0 + xp_32_3
 + xp_32_1 + xp_28_1 + xp_24_1 + xp_19_1 + xp_12_0 + xp_11_0 + xp_0_0
 <= 35452.5189478377
 r_16: + xp_128_0 + xp_123_0 + xp_108_1 + xp_108_0 + xp_78_4 + xp_78_2
 + xp_78_1 + xp_78_0 + xp_73_0 + xp_67_0 + xp_57_0 + xp_46_0 + xp_44_0
 + xp_40_0 + xp_22_0 + xp_18_1 + xp_13_0 + xp_6_0 <= 38394.8497854077
 r_17: + xp_131_3 + xp_129_0 + xp_128_2 + xp_126_0 + xp_124_1 + xp_112_2
 + xp_111_1 + xp_109_0 + xp_97_0 + xp_95_2 + xp_91_1 + xp_90_2 + xp_81_1
 + xp_80_1 + xp_79_1 + xp_68_2 + xp_63_1 + xp_62_0 + xp_61_0 + xp_60_0
 + xp_55_1 + xp_47_0 + xp_40_1 + xp_32_2 + xp_22_1 + xp_18_2 + xp_17_1
 + xp_13_1 + xp_12_2 + xp_9_0 + xp_6_1 + xp_1_0 <= 34748.3512669212
 r_18: + xp_126_3 + xp_126_1 + xp_126_0 + xp_124_1 + xp_106_0 + xp_99_0
 + xp_98_0 + xp_94_1 + xp_92_1 + xp_92_0 + xp_86_0 + xp_85_0 + xp_68_2
 + xp_68_0 + xp_58_0 + xp_48_0 + xp_32_2 + xp_32_0 + xp_30_0 + xp_26_0
 + xp_24_0 + xp_5_0 + xp_2_0 <= 35917.2202350537
 r_19: + xp_131_3 + xp_131_1 + xp_125_1 + xp_116_1 + xp_115_1 + xp_110_0
 + xp_108_1 + xp_94_2 + xp_86_2 + xp_78_0 + xp_65_1 + xp_56_0 + xp_50_1
 + xp_42_1 + xp_28_0 + xp_19_0 + xp_14_1 + xp_12_2 + xp_12_1 + xp_11_1
 + xp_3_0 + xp_2_1 <= 35917.2202350537
 r_20: + xp_129_1 + xp_128_1 + xp_123_1 + xp_119_1 + xp_119_0 + xp_112_1
 + xp_112_0 + xp_111_0 + xp_108_2 + xp_108_0 + xp_107_0 + xp_95_1
 + xp_95_0 + xp_91_0 + xp_81_0 + xp_80_0 + xp_79_0 + xp_78_3 + xp_78_1
 + xp_69_0 + xp_64_0 + xp_63_0 + xp_60_1 + xp_50_0 + xp_49_0 + xp_45_0
 + xp_40_2 + xp_18_0 + xp_17_0 + xp_14_0 + xp_13_2 + xp_10_0 + xp_9_1
 + xp_4_0 <= 34748.3512669212
 r_21: + xp_126_5 + xp_126_4 + xp_113_0 + xp_99_1 + xp_86_2 + xp_86_1
 + xp_77_1 + xp_77_0 + xp_65_1 + xp_65_0 + xp_58_1 + xp_48_1 + xp_38_0
 + xp_20_0 + xp_2_1 + xp_0_0 <= 36180.8219178082
 r_22: + xp_126_6 + xp_126_2 + xp_124_0 + xp_105_0 + xp_98_1 + xp_94_3
 + xp_94_2 + xp_94_0 + xp_85_1 + xp_83_0 + xp_68_1 + xp_58_2 + xp_41_0
 + xp_32_3 + xp_32_1 + xp_30_1 + xp_24_1 <= 36180.8219178082
 r_23: + xp_128_2 + xp_128_1 + xp_128_0 + xp_119_1 + xp_117_0 + xp_112_2
 + xp_112_1 + xp_111_1 + xp_104_0 + xp_100_0 + xp_95_2 + xp_95_1
 + xp_91_1 + xp_91_0 + xp_84_0 + xp_82_0 + xp_81_1 + xp_80_1 + xp_80_0
 + xp_79_1 + xp_79_0 + xp_78_4 + xp_78_2 + xp_73_0 + xp_60_1 + xp_60_0
 + xp_53_1 + xp_50_2 + xp_46_0 + xp_44_0 + xp_40_2 + xp_40_1 + xp_40_0
 + xp_34_1 + xp_21_0 + xp_18_2 + xp_18_1 + xp_15_0 + xp_9_1 + xp_9_0
 + xp_3_1 <= 36180.8219178082
 r_24: + xp_128_0 + xp_126_6 + xp_126_5 + xp_126_1 + xp_103_0 + xp_94_3
 + xp_94_2 + xp_94_1 + xp_90_1 + xp_89_1 + xp_61_1 + xp_40_0 + xp_39_0
 + xp_22_0 + xp_18_1 + xp_13_0 + xp_12_1 + xp_1_1 <= 38394.8497854077
 r_25: + xp_131_3 + xp_131_0 + xp_127_0 + xp_126_4 + xp_126_3 + xp_126_2
 + xp_126_0 + xp_120_1 + xp_94_0 + xp_90_2 + xp_90_0 + xp_89_0 + xp_77_0
 + xp_74_0 + xp_61_0 + xp_55_1 + xp_42_0 + xp_38_0 + xp_32_3 + xp_32_2
 + xp_24_1 + xp_12_2 + xp_12_0 + xp_1_0 <= 38394.8497854077
 r_26: + xp_128_2 + xp_128_1 + xp_123_1 + xp_121_0 + xp_112_2 + xp_112_1
 + xp_112_0 + xp_108_2 + xp_107_0 + xp_81_1 + xp_81_0 + xp_79_1
 + xp_79_0 + xp_78_3 + xp_67_1 + xp_64_0 + xp_60_1 + xp_60_0 + xp_57_1
 + xp_47_0 + xp_40_2 + xp_40_1 + xp_37_0 + xp_29_0 + xp_25_0 + xp_22_1
 + xp_18_2 + xp_18_0 + xp_17_1 + xp_17_0 + xp_13_2 + xp_13_1 + xp_6_1
 + xp_4_0 <= 34748.3512669212
 r_27: + xp_131_2 + xp_127_1 + xp_126_6 + xp_126_5 + xp_125_0 + xp_120_2
 + xp_116_0 + xp_115_0 + xp_108_0 + xp_99_1 + xp_98_1 + xp_96_1
 + xp_94_3 + xp_92_1 + xp_89_1 + xp_86_1 + xp_85_1 + xp_78_1 + xp_77_1
 + xp_75_1 + xp_72_0 + xp_67_0 + xp_65_0 + xp_58_2 + xp_58_1 + xp_57_0
 + xp_52_0 + xp_50_0 + xp_48_1 + xp_42_2 + xp_32_1 + xp_28_1 + xp_23_0
 + xp_19_1 + xp_14_0 + xp_11_0 <= 34748.3512669212
 r_28: + xp_131_3 + xp_131_1 + xp_126_1 + xp_126_0 + xp_125_1 + xp_124_1
 + xp_120_0 + xp_116_1 + xp_115_1 + xp_109_0 + xp_99_0 + xp_98_0
 + xp_96_0 + xp_94_2 + xp_94_1 + xp_92_0 + xp_90_2 + xp_90_1 + xp_86_2
 + xp_86_0 + xp_85_0 + xp_75_0 + xp_68_2 + xp_65_1 + xp_58_0 + xp_54_0
 + xp_48_0 + xp_42_1 + xp_32_2 + xp_32_0 + xp_28_0 + xp_26_0 + xp_24_0
 + xp_19_0 + xp_12_2 + xp_12_1 + xp_11_1 <= 34748.3512669212
 r_29: + xp_129_1 + xp_129_0 + xp_95_2 + xp_95_1 + xp_95_0 + xp_93_0
 + xp_87_0 + xp_71_0 + xp_62_0 + xp_49_0 + xp_45_0 + xp_10_0 + xp_9_1
 + xp_9_0 + xp_1_1 + xp_1_0 <= 34748.3512669212
 r_30: + xp_125_1 + xp_125_0 + xp_121_0 + xp_102_0 + xp_99_1 + xp_99_0
 + xp_96_1 + xp_96_0 + xp_92_1 + xp_92_0 + xp_57_1 + xp_57_0 + xp_37_0
 + xp_26_0 + xp_23_0 + xp_11_1 + xp_11_0 <= 34748.3512669212

Bounds
 0 <= xp_0_0 <= 236.388138286589
 0 <= xp_1_0 <= 156.77457535208
 0 <= xp_1_1 <= 26.1290958920133
 0 <= xp_2_0 <= 90.5321291781939
 0 <= xp_2_1 <= 24.690580684962
 0 <= xp_3_0 <= 143.502503900793
 0 <= xp_3_1 <= 39.1370465183982
 0 <= xp_4_0 <= 790.315538310667
 0 <= xp_5_0 <= 1085.33849972533
 0 <= xp_6_0 <= 1666.93727260111
 0 <= xp_6_1 <= 128.225944046239
 0 <= xp_7_0 <= 639.436517085846
 0 <= xp_8_0 <= 1512.48790379682
 0 <= xp_9_0 <= 54.2107993109748
 0 <= xp_9_1 <= 54.2107993109748
 0 <= xp_10_0 <= 54.9371315794532
 0 <= xp_11_0 <= 26.7422335212482
 0 <= xp_11_1 <= 14.8567964006935
 0 <= xp_12_0 <= 1775.06173529504
 0 <= xp_12_1 <= 147.921811274587
 0 <= xp_12_2 <= 147.921811274587
 0 <= xp_13_0 <= 162.278664685289
 0 <= xp_13_1 <= 18.0309627428099
 0 <= xp_13_2 <= 72.1238509712395
 0 <= xp_14_0 <= 110.17139908692
 0 <= xp_14_1 <= 110.17139908692
 0 <= xp_15_0 <= 508.036406697491
 0 <= xp_16_0 <= 2645.76433324172
 0 <= xp_17_0 <= 148.799069728723
 0 <= xp_17_1 <= 148.799069728723
 0 <= xp_18_0 <= 179.833266654616
 0 <= xp_18_1 <= 128.452333324726
 0 <= xp_18_2 <= 51.3809333298903
 0 <= xp_19_0 <= 530.288586195418
 0 <= xp_19_1 <= 530.288586195418
 0 <= xp_20_0 <= 128.494781314442
 0 <= xp_21_0 <= 275.015808928392
 0 <= xp_22_0 <= 440.869537636451
 0 <= xp_22_1 <= 793.565167745612
 0 <= xp_23_0 <= 52.097832711765
 0 <= xp_24_0 <= 170.655067989299
 0 <= xp_24_1 <= 170.655067989299
 0 <= xp_25_0 <= 579.943301276847
 0 <= xp_26_0 <= 15.3850380504959
 0 <= xp_27_0 <= 338.60289752336
 0 <= xp_28_0 <= 286.665423883857
 0 <= xp_28_1 <= 382.220565178476
 0 <= xp_29_0 <= 2453.02216127005
 0 <= xp_30_0 <= 144.384478798231
 0 <= xp_30_1 <= 39.3775851267904
 0 <= xp_31_0 <= 191.025386609805
 0 <= xp_32_0 <= 1611.46718292855
 0 <= xp_32_1 <= 322.29343658571
 0 <= xp_32_2 <= 161.146718292855
 0 <= xp_32_3 <= 161.146718292855
 0 <= xp_33_0 <= 8077.27703692279
 0 <= xp_34_0 <= 146.28520544886
 0 <= xp_34_1 <= 365.713013622149
 0 <= xp_35_0 <= 261.611677064656
 0 <= xp_36_0 <= 319.652228336698
 0 <= xp_37_0 <= 365.675282075735
 0 <= xp_38_0 <= 335.565508036996
 0 <= xp_39_0 <= 1576.93338507272
 0 <= xp_40_0 <= 303.951188584981
 0 <= xp_40_1 <= 243.160950867985
 0 <= xp_40_2 <= 303.951188584981
 0 <= xp_41_0 <= 80.0946401512941
 0 <= xp_42_0 <= 390.181921471926
 0 <= xp_42_1 <= 32.5151601226605
 0 <= xp_42_2 <= 32.5151601226605
 0 <= xp_43_0 <= 493.179610296797
 0 <= xp_44_0 <= 459.636265534343
 0 <= xp_45_0 <= 42.6555132215466
 0 <= xp_46_0 <= 1609.22215591689
 0 <= xp_47_0 <= 880.975011458009
 0 <= xp_48_0 <= 2705.10190642176
 0 <= xp_48_1 <= 208.084762032443
 0 <= xp_49_0 <= 88.2823857232318
 0 <= xp_50_0 <= 449.231791610556
 0 <= xp_50_1 <= 56.1539739513195
 0 <= xp_50_2 <= 280.769869756597
 0 <= xp_51_0 <= 711.211351252752
 0 <= xp_52_0 <= 663.933723595434
 0 <= xp_53_0 <= 163.17007246933
 0 <= xp_53_1 <= 27.1950120782217
 0 <= xp_54_0 <= 3702.11557243413
 0 <= xp_55_0 <= 1103.09590875663
 0 <= xp_55_1 <= 84.8535314428178
 0 <= xp_56_0 <= 96.0079198515924
 0 <= xp_57_0 <= 177.036415776644
 0 <= xp_57_1 <= 29.5060692961074
 0 <= xp_58_0 <= 3255.10050917543
 0 <= xp_58_1 <= 976.530152752628
 0 <= xp_58_2 <= 325.510050917543
 0 <= xp_59_0 <= 10669.2267520909
 0 <= xp_60_0 <= 339.72541102919
 0 <= xp_60_1 <= 339.72541102919
 0 <= xp_61_0 <= 1732.679775785
 0 <= xp_61_1 <= 693.071910314001
 0 <= xp_62_0 <= 131.532170800806
 0 <= xp_63_0 <= 94.376030469167
 0 <= xp_63_1 <= 37.7504121876668
 0 <= xp_64_0 <= 996.725962970968
 0 <= xp_65_0 <= 486.21813998333
 0 <= xp_65_1 <= 37.4013953833331
 0 <= xp_66_0 <= 1683.96834936393
 0 <= xp_67_0 <= 318.652342356715
 0 <= xp_67_1 <= 86.905184279104
 0 <= xp_68_0 <= 527.439854441127
 0 <= xp_68_1 <= 843.903767105803
 0 <= xp_68_2 <= 105.487970888225
 0 <= xp_69_0 <= 1722.66205021196
 0 <= xp_70_0 <= 633.163647494443
 0 <= xp_71_0 <= 71.0485018984274
 0 <= xp_72_0 <= 600.478695412917
 0 <= xp_73_0 <= 925.215249628963
 0 <= xp_74_0 <= 955.523114286378
 0 <= xp_75_0 <= 1515.61962214922
 0 <= xp_75_1 <= 252.603270358203
 0 <= xp_76_0 <= 1726.22768134813
 0 <= xp_77_0 <= 450.637291714494
 0 <= xp_77_1 <= 122.901079558498
 0 <= xp_78_0 <= 2004.34219352581
 0 <= xp_78_1 <= 4008.68438705162
 0 <= xp_78_2 <= 10021.710967629
 0 <= xp_78_3 <= 8017.36877410324
 0 <= xp_78_4 <= 4008.68438705162
 0 <= xp_79_0 <= 610.420957893127
 0 <= xp_79_1 <= 457.815718419845
 0 <= xp_80_0 <= 129.19281492311
 0 <= xp_80_1 <= 96.8946111923322
 0 <= xp_81_0 <= 186.865483617611
 0 <= xp_81_1 <= 74.7461934470444
 0 <= xp_82_0 <= 220.408828380066
 0 <= xp_83_0 <= 505.263138036028
 0 <= xp_84_0 <= 892.530297547437
 0 <= xp_85_0 <= 175.649781445913
 0 <= xp_85_1 <= 234.199708594551
 0 <= xp_86_0 <= 61.408091789533
 0 <= xp_86_1 <= 85.9713285053462
 0 <= xp_86_2 <= 24.5632367158132
 0 <= xp_87_0 <= 141.700822559503
 0 <= xp_88_0 <= 426.48910200924
 0 <= xp_89_0 <= 2068.35847846124
 0 <= xp_89_1 <= 159.104498343172
 0 <= xp_90_0 <= 10884.1880884574
 0 <= xp_90_1 <= 6219.53605054707
 0 <= xp_90_2 <= 4664.6520379103
 0 <= xp_91_0 <= 1364.81134757393
 0 <= xp_91_1 <= 1364.81134757393
 0 <= xp_92_0 <= 62.2947831302727
 0 <= xp_92_1 <= 4.79190639463637
 0 <= xp_93_0 <= 130.871868738553
 0 <= xp_94_0 <= 186.874916504215
 0 <= xp_94_1 <= 16.9886287731104
 0 <= xp_94_2 <= 16.9886287731104
 0 <= xp_94_3 <= 16.9886287731104
 0 <= xp_95_0 <= 48.3529767301299
 0 <= xp_95_1 <= 4.39572515728454
 0 <= xp_95_2 <= 8.79145031456908
 0 <= xp_96_0 <= 99.2716986164431
 0 <= xp_96_1 <= 16.5452831027405
 0 <= xp_97_0 <= 529.298133102039
 0 <= xp_98_0 <= 102.535477381294
 0 <= xp_98_1 <= 41.0141909525176
 0 <= xp_99_0 <= 15.2671269679507
 0 <= xp_99_1 <= 1.17439438215005
 0 <= xp_100_0 <= 505.065047417352
 0 <= xp_101_0 <= 250.914783656156
 0 <= xp_102_0 <= 75.2744350968468
 0 <= xp_103_0 <= 1445.79739550926
 0 <= xp_104_0 <= 132.45659368796
 0 <= xp_105_0 <= 1455.96604726796
 0 <= xp_106_0 <= 41.5990299219417
 0 <= xp_107_0 <= 451.646610581081
 0 <= xp_108_0 <= 304.517161781198
 0 <= xp_108_1 <= 243.613729424958
 0 <= xp_108_2 <= 304.517161781198
 0 <= xp_109_0 <= 485.388045962211
 0 <= xp_109_1 <= 485.388045962211
 0 <= xp_110_0 <= 133.777197812466
 0 <= xp_111_0 <= 2098.06263837602
 0 <= xp_111_1 <= 839.22505535041
 0 <= xp_112_0 <= 3693.76275134663
 0 <= xp_112_1 <= 335.796613758785
 0 <= xp_112_2 <= 671.59322751757
 0 <= xp_113_0 <= 427.215434277719
 0 <= xp_114_0 <= 2407.9895606244
 0 <= xp_115_0 <= 142.625245446657
 0 <= xp_115_1 <= 79.2362474703651
 0 <= xp_116_0 <= 103.106167020813
 0 <= xp_116_1 <= 57.2812039004514
 0 <= xp_117_0 <= 1951.52274498887
 0 <= xp_118_0 <= 3168.1292946901
 0 <= xp_119_0 <= 58.5546435919395
 0 <= xp_119_1 <= 4.50420335322611
 0 <= xp_120_0 <= 1400.69876465738
 0 <= xp_120_1 <= 155.633196073042
 0 <= xp_120_2 <= 622.532784292168
 0 <= xp_121_0 <= 75.8687069528746
 0 <= xp_122_0 <= 2284.44704477685
 0 <= xp_123_0 <= 479.167057247127
 0 <= xp_123_1 <= 36.8590044036252
 0 <= xp_124_0 <= 128.391019561802
 0 <= xp_124_1 <= 9.87623227398479
 0 <= xp_125_0 <= 15.6585917620007
 0 <= xp_125_1 <= 11.7439438215005
 0 <= xp_126_0 <= 1820.50466650796
 0 <= xp_126_1 <= 9102.52333253979
 0 <= xp_126_2 <= 7282.01866603183
 0 <= xp_126_3 <= 1820.50466650796
 0 <= xp_126_4 <= 1820.50466650796
 0 <= xp_126_5 <= 1820.50466650796
 0 <= xp_126_6 <= 1820.50466650796
 0 <= xp_127_0 <= 372.396213780811
 0 <= xp_127_1 <= 206.886785433784
 0 <= xp_128_0 <= 174.800821651588
 0 <= xp_128_1 <= 174.800821651588
 0 <= xp_128_2 <= 58.2669405505292
 0 <= xp_129_0 <= 17.5687512992327
 0 <= xp_129_1 <= 31.6237523386189
 0 <= xp_130_0 <= 405.359436017143
 0 <= xp_131_0 <= 275.369542176028
 0 <= xp_131_1 <= 165.221725305617
 0 <= xp_131_2 <= 220.295633740822
 0 <= xp_131_3 <= 110.147816870411

End
